p tw 440 494
1 2
2 113
3 14
4 5
5 6
6 7
7 8
7 12
8 9
9 10
10 11
11 107
12 13
13 15
14 25
15 16
16 17
17 18
17 22
18 19
19 20
20 21
21 107
22 23
23 24
24 26
25 36
26 27
27 28
27 97
28 29
29 30
30 31
31 32
32 33
32 28
33 34
34 35
35 37
35 107
36 47
37 38
38 39
39 40
40 41
40 43
41 42
42 28
43 44
44 45
45 46
46 48
47 58
48 49
48 51
49 50
50 28
51 52
52 53
53 54
54 55
55 56
55 59
56 57
57 28
58 69
59 60
60 61
61 62
62 63
63 64
63 66
64 65
65 28
66 67
67 68
68 70
69 80
70 71
71 72
71 74
72 73
73 28
74 75
75 76
76 77
77 78
78 79
78 82
79 81
80 91
81 28
82 83
83 84
84 85
85 86
86 87
86 89
87 88
88 28
89 90
90 92
91 102
92 93
93 94
94 95
94 97
95 96
96 28
97 98
98 99
99 100
100 101
101 103
102 114
103 104
104 105
105 106
106 107
107 108
108 109
109 180
110 111
111 112
112 115
113 224
114 125
115 116
116 117
116 120
117 118
118 119
118 120
119 120
120 121
121 122
121 128
122 123
123 124
124 126
125 136
126 127
127 132
128 129
129 130
130 131
131 132
132 133
133 134
134 135
134 146
135 137
136 147
137 138
138 139
139 140
140 141
141 142
142 143
143 144
144 145
145 146
146 148
147 158
148 149
148 154
149 150
150 151
151 152
152 153
153 159
154 155
155 156
156 157
157 159
158 169
159 160
160 161
161 162
161 173
162 163
163 164
164 165
165 166
166 167
167 168
168 170
169 180
170 171
171 172
172 173
173 174
174 175
174 184
175 176
176 177
177 178
178 179
179 181
180 191
181 182
182 183
182 184
183 184
184 185
185 186
185 187
186 187
186 198
187 188
188 189
189 190
190 192
191 202
192 193
193 194
194 195
195 196
196 197
197 198
198 199
199 200
200 201
201 203
202 213
202 110
203 204
203 206
204 205
205 210
206 207
207 208
208 209
209 210
210 211
211 212
212 214
213 225
214 215
215 216
215 218
216 217
217 218
217 230
218 219
219 220
220 221
221 222
222 223
223 226
224 335
225 236
226 227
227 228
228 229
229 230
230 231
231 232
232 233
233 234
234 235
235 237
236 247
237 238
238 239
239 240
240 241
240 244
241 242
242 243
243 244
244 245
245 246
245 254
246 248
247 258
248 249
249 250
250 251
251 252
252 253
253 244
254 255
255 256
255 264
256 257
257 259
258 269
259 260
260 261
261 262
262 263
263 254
264 265
265 266
266 267
267 268
267 370
268 270
269 280
270 271
270 274
271 272
272 273
273 274
273 294
274 275
275 276
276 277
276 286
277 278
278 279
279 281
280 291
280 336
281 282
282 283
282 286
283 284
284 285
285 279
286 287
287 288
288 289
289 290
290 292
291 302
292 293
293 294
294 295
295 296
296 297
296 322
297 298
298 299
299 300
300 301
301 303
302 313
303 304
303 306
304 305
305 306
306 307
307 308
308 309
309 310
310 311
311 312
311 320
312 314
313 324
314 315
315 316
315 317
316 317
317 318
318 319
319 309
320 321
321 322
322 323
323 325
323 330
324 107
325 326
326 327
327 328
327 330
328 329
329 330
330 331
331 332
332 333
332 340
333 334
334 337
335 386
336 347
337 338
337 342
338 339
339 342
340 341
341 342
342 343
343 344
344 345
345 346
346 348
347 358
348 349
348 362
349 350
349 362
350 351
351 352
352 353
353 354
354 355
355 356
356 357
357 359
358 369
359 360
360 361
361 362
361 351
362 363
363 364
364 365
364 264
365 366
366 367
367 368
368 264
369 380
370 371
371 372
372 373
373 374
374 375
375 376
376 377
377 264
378 379
380 381
380 385
381 382
382 383
383 384
384 107
385 387
386 397
387 388
388 389
389 390
390 391
390 395
391 392
392 393
393 394
394 107
395 396
396 398
397 408
398 399
399 400
400 401
400 405
401 402
402 403
403 404
404 107
405 406
406 407
407 409
408 419
409 410
410 411
410 413
411 412
412 107
413 414
414 415
415 416
416 417
417 418
417 421
418 420
419 430
420 107
421 422
422 423
423 424
424 425
425 426
425 431
426 427
427 428
428 429
429 107
430 3
431 432
432 433
433 434
434 435
435 436
435 440
436 437
437 438
438 439
439 107
440 4
